letting n_nurses=25
letting n_days=7
letting n_shift_types=4
letting max_covers=13
letting t_covers=87
letting covers=[2,13,0,0,1,1,13,0,2,12,0,0,2,13,0,0,1,0,8,0,8,0,1,0,8,2,0,0]
letting prefes=[3,1,2,3,2,2,3,2,1,4,1,4,1,1,1,3,1,1,1,3,2,2,3,2,1,1,1,3,3,1,2,3,2,1,1,2,1,4,1,3,1,1,1,3,1,1,1,3,2,1,1,2,1,1,1,3,1,1,2,1,2,2,3,2,1,1,1,4,2,3,2,3,2,3,2,3,2,2,3,2,2,3,2,3,3,1,1,3,2,2,3,2,1,4,1,3,2,3,2,3,2,3,2,3,2,2,3,2,2,3,2,3,3,1,2,1,2,1,1,2,1,1,1,4,2,1,1,1,2,1,1,1,2,1,1,2,2,1,1,1,1,1,2,1,2,1,3,2,1,1,1,4,2,1,1,3,2,1,1,3,2,1,3,2,2,1,1,3,1,1,2,1,1,1,3,1,3,1,1,4,1,1,1,3,1,1,1,3,1,1,3,1,1,1,1,3,3,1,2,3,1,1,3,1,1,4,4,4,2,1,1,3,2,1,1,3,1,1,3,1,2,1,1,3,3,3,2,3,2,1,1,2,1,4,1,3,2,1,1,1,2,1,1,1,2,1,1,2,2,1,1,1,3,1,1,3,2,1,3,2,1,4,1,4,2,1,1,3,2,1,1,3,2,1,3,2,2,1,1,3,3,1,1,3,2,1,3,2,1,4,4,4,2,1,1,1,2,1,1,1,2,1,3,2,2,1,1,1,3,1,2,3,2,1,3,2,1,4,1,4,1,1,1,3,1,1,1,3,2,1,3,2,1,1,1,3,3,1,2,3,1,1,3,1,3,4,1,4,2,3,1,3,2,3,1,3,1,1,3,1,2,3,1,3,3,3,2,3,1,1,3,1,1,4,1,4,2,1,2,3,2,1,2,3,1,1,3,1,2,1,2,3,3,3,2,3,2,1,3,2,1,4,1,4,2,1,1,3,2,1,1,3,2,1,3,2,2,1,1,3,1,1,2,3,2,1,3,2,1,4,1,4,1,1,1,1,1,1,1,1,2,1,3,2,1,1,1,1,3,1,2,3,2,2,3,2,1,4,4,3,2,1,2,3,2,1,2,3,2,2,3,2,2,1,2,3,3,3,2,3,2,1,3,2,1,4,1,4,2,1,1,3,2,1,1,3,2,1,3,2,2,1,1,3,3,1,2,1,2,1,1,2,3,4,1,4,2,1,1,3,2,1,1,3,2,1,1,2,2,1,1,3,3,1,1,3,1,2,3,1,1,1,4,4,2,1,2,3,2,1,2,3,1,2,3,1,2,1,2,3,3,3,2,3,2,1,1,2,1,4,4,3,2,3,1,3,2,3,1,3,2,1,1,2,2,3,1,3,3,1,2,3,2,1,3,2,3,4,1,4,2,3,1,3,2,3,1,3,2,1,3,2,2,3,1,3,1,1,2,3,2,1,3,2,1,4,1,4,2,1,1,1,2,1,1,1,2,1,3,2,2,1,1,1,3,1,1,3,2,1,3,2,1,4,1,4,2,1,1,3,2,1,1,3,2,1,3,2,2,1,1,3,3,1,2,3,2,1,3,2,3,4,1,4,2,1,1,3,2,1,1,3,2,1,3,2,2,1,1,3]
letting ub =  281
